c colouring generated by benchmark framework
p edge 1000 246708
v 1 78
v 2 131
v 3 131
v 4 40
v 5 47
v 6 38
v 7 104
v 8 94
v 9 78
v 10 88
v 11 25
v 12 84
v 13 126
v 14 95
v 15 93
v 16 52
v 17 48
v 18 121
v 19 20
v 20 38
v 21 64
v 22 70
v 23 12
v 24 1
v 25 56
v 26 31
v 27 67
v 28 97
v 29 92
v 30 33
v 31 40
v 32 72
v 33 62
v 34 45
v 35 90
v 36 6
v 37 57
v 38 101
v 39 103
v 40 106
v 41 93
v 42 109
v 43 51
v 44 53
v 45 60
v 46 15
v 47 13
v 48 3
v 49 59
v 50 72
v 51 18
v 52 21
v 53 62
v 54 2
v 55 47
v 56 126
v 57 35
v 58 76
v 59 12
v 60 100
v 61 108
v 62 15
v 63 101
v 64 3
v 65 37
v 66 31
v 67 28
v 68 56
v 69 91
v 70 60
v 71 23
v 72 37
v 73 34
v 74 30
v 75 6
v 76 74
v 77 15
v 78 68
v 79 37
v 80 34
v 81 100
v 82 108
v 83 101
v 84 24
v 85 35
v 86 32
v 87 56
v 88 32
v 89 79
v 90 127
v 91 57
v 92 14
v 93 63
v 94 112
v 95 48
v 96 68
v 97 116
v 98 76
v 99 75
v 100 83
v 101 3
v 102 69
v 103 7
v 104 41
v 105 63
v 106 22
v 107 49
v 108 98
v 109 81
v 110 45
v 111 26
v 112 75
v 113 49
v 114 49
v 115 40
v 116 14
v 117 34
v 118 23
v 119 78
v 120 0
v 121 53
v 122 28
v 123 80
v 124 19
v 125 94
v 126 120
v 127 45
v 128 63
v 129 73
v 130 94
v 131 3
v 132 40
v 133 31
v 134 102
v 135 12
v 136 32
v 137 125
v 138 72
v 139 83
v 140 37
v 141 19
v 142 56
v 143 93
v 144 64
v 145 135
v 146 26
v 147 59
v 148 31
v 149 75
v 150 76
v 151 17
v 152 10
v 153 73
v 154 95
v 155 53
v 156 64
v 157 36
v 158 52
v 159 129
v 160 51
v 161 16
v 162 28
v 163 67
v 164 6
v 165 65
v 166 42
v 167 114
v 168 82
v 169 126
v 170 35
v 171 0
v 172 80
v 173 32
v 174 123
v 175 84
v 176 39
v 177 11
v 178 23
v 179 116
v 180 50
v 181 19
v 182 105
v 183 78
v 184 97
v 185 87
v 186 37
v 187 24
v 188 22
v 189 1
v 190 80
v 191 96
v 192 39
v 193 1
v 194 134
v 195 95
v 196 24
v 197 16
v 198 71
v 199 104
v 200 99
v 201 117
v 202 46
v 203 126
v 204 94
v 205 99
v 206 11
v 207 89
v 208 92
v 209 118
v 210 40
v 211 54
v 212 70
v 213 47
v 214 65
v 215 84
v 216 34
v 217 16
v 218 111
v 219 7
v 220 70
v 221 138
v 222 55
v 223 32
v 224 117
v 225 38
v 226 11
v 227 138
v 228 93
v 229 64
v 230 110
v 231 8
v 232 48
v 233 77
v 234 72
v 235 83
v 236 28
v 237 124
v 238 55
v 239 1
v 240 124
v 241 70
v 242 124
v 243 10
v 244 51
v 245 39
v 246 50
v 247 91
v 248 52
v 249 6
v 250 70
v 251 7
v 252 120
v 253 24
v 254 63
v 255 19
v 256 23
v 257 66
v 258 31
v 259 9
v 260 60
v 261 18
v 262 3
v 263 52
v 264 127
v 265 8
v 266 14
v 267 114
v 268 38
v 269 99
v 270 57
v 271 68
v 272 46
v 273 115
v 274 110
v 275 29
v 276 77
v 277 96
v 278 19
v 279 73
v 280 12
v 281 51
v 282 114
v 283 25
v 284 84
v 285 115
v 286 105
v 287 8
v 288 81
v 289 96
v 290 51
v 291 133
v 292 88
v 293 40
v 294 41
v 295 88
v 296 65
v 297 87
v 298 15
v 299 35
v 300 9
v 301 92
v 302 100
v 303 49
v 304 70
v 305 25
v 306 84
v 307 38
v 308 19
v 309 15
v 310 18
v 311 84
v 312 43
v 313 24
v 314 19
v 315 61
v 316 22
v 317 111
v 318 104
v 319 10
v 320 63
v 321 130
v 322 23
v 323 45
v 324 9
v 325 30
v 326 71
v 327 44
v 328 21
v 329 51
v 330 2
v 331 49
v 332 90
v 333 82
v 334 85
v 335 64
v 336 53
v 337 81
v 338 13
v 339 43
v 340 110
v 341 107
v 342 114
v 343 97
v 344 4
v 345 119
v 346 86
v 347 66
v 348 73
v 349 36
v 350 16
v 351 40
v 352 132
v 353 72
v 354 115
v 355 29
v 356 41
v 357 61
v 358 91
v 359 5
v 360 30
v 361 137
v 362 116
v 363 36
v 364 98
v 365 1
v 366 109
v 367 75
v 368 75
v 369 0
v 370 24
v 371 87
v 372 100
v 373 95
v 374 1
v 375 69
v 376 47
v 377 54
v 378 115
v 379 17
v 380 57
v 381 53
v 382 92
v 383 86
v 384 119
v 385 121
v 386 44
v 387 73
v 388 24
v 389 112
v 390 107
v 391 87
v 392 88
v 393 45
v 394 9
v 395 2
v 396 112
v 397 101
v 398 2
v 399 30
v 400 89
v 401 50
v 402 17
v 403 27
v 404 98
v 405 0
v 406 25
v 407 59
v 408 56
v 409 113
v 410 81
v 411 88
v 412 68
v 413 12
v 414 28
v 415 20
v 416 25
v 417 17
v 418 130
v 419 43
v 420 33
v 421 94
v 422 71
v 423 13
v 424 120
v 425 96
v 426 87
v 427 13
v 428 22
v 429 13
v 430 78
v 431 41
v 432 13
v 433 26
v 434 14
v 435 110
v 436 71
v 437 32
v 438 5
v 439 16
v 440 54
v 441 122
v 442 98
v 443 63
v 444 29
v 445 48
v 446 106
v 447 65
v 448 37
v 449 82
v 450 53
v 451 113
v 452 36
v 453 0
v 454 102
v 455 13
v 456 66
v 457 91
v 458 23
v 459 29
v 460 120
v 461 98
v 462 52
v 463 110
v 464 36
v 465 25
v 466 16
v 467 104
v 468 17
v 469 43
v 470 61
v 471 44
v 472 14
v 473 99
v 474 89
v 475 57
v 476 111
v 477 126
v 478 2
v 479 27
v 480 25
v 481 58
v 482 3
v 483 112
v 484 35
v 485 92
v 486 60
v 487 29
v 488 47
v 489 26
v 490 49
v 491 5
v 492 54
v 493 67
v 494 21
v 495 27
v 496 33
v 497 121
v 498 48
v 499 20
v 500 80
v 501 81
v 502 35
v 503 137
v 504 22
v 505 120
v 506 4
v 507 83
v 508 51
v 509 36
v 510 119
v 511 71
v 512 48
v 513 33
v 514 20
v 515 74
v 516 19
v 517 20
v 518 117
v 519 87
v 520 36
v 521 106
v 522 34
v 523 123
v 524 100
v 525 73
v 526 65
v 527 136
v 528 39
v 529 97
v 530 21
v 531 1
v 532 102
v 533 9
v 534 29
v 535 57
v 536 65
v 537 95
v 538 59
v 539 14
v 540 54
v 541 122
v 542 9
v 543 86
v 544 4
v 545 51
v 546 100
v 547 10
v 548 26
v 549 129
v 550 8
v 551 80
v 552 77
v 553 107
v 554 121
v 555 17
v 556 40
v 557 92
v 558 42
v 559 15
v 560 81
v 561 41
v 562 79
v 563 43
v 564 64
v 565 47
v 566 7
v 567 113
v 568 55
v 569 98
v 570 70
v 571 46
v 572 62
v 573 108
v 574 26
v 575 52
v 576 108
v 577 138
v 578 39
v 579 86
v 580 115
v 581 76
v 582 92
v 583 15
v 584 0
v 585 37
v 586 122
v 587 35
v 588 103
v 589 99
v 590 106
v 591 9
v 592 5
v 593 16
v 594 93
v 595 55
v 596 31
v 597 7
v 598 25
v 599 78
v 600 56
v 601 60
v 602 81
v 603 80
v 604 105
v 605 74
v 606 11
v 607 22
v 608 58
v 609 91
v 610 85
v 611 20
v 612 104
v 613 133
v 614 62
v 615 67
v 616 119
v 617 76
v 618 3
v 619 27
v 620 60
v 621 67
v 622 46
v 623 41
v 624 45
v 625 4
v 626 86
v 627 16
v 628 95
v 629 56
v 630 77
v 631 112
v 632 86
v 633 104
v 634 99
v 635 24
v 636 78
v 637 46
v 638 125
v 639 40
v 640 52
v 641 42
v 642 101
v 643 21
v 644 7
v 645 103
v 646 50
v 647 38
v 648 54
v 649 119
v 650 79
v 651 34
v 652 35
v 653 134
v 654 95
v 655 80
v 656 87
v 657 62
v 658 89
v 659 31
v 660 34
v 661 66
v 662 10
v 663 49
v 664 81
v 665 8
v 666 116
v 667 134
v 668 76
v 669 49
v 670 6
v 671 73
v 672 59
v 673 77
v 674 61
v 675 34
v 676 14
v 677 72
v 678 117
v 679 45
v 680 33
v 681 42
v 682 4
v 683 94
v 684 64
v 685 18
v 686 4
v 687 19
v 688 109
v 689 85
v 690 13
v 691 90
v 692 50
v 693 36
v 694 2
v 695 75
v 696 114
v 697 13
v 698 18
v 699 2
v 700 67
v 701 2
v 702 17
v 703 127
v 704 21
v 705 25
v 706 17
v 707 80
v 708 12
v 709 6
v 710 79
v 711 51
v 712 18
v 713 60
v 714 33
v 715 5
v 716 12
v 717 44
v 718 30
v 719 95
v 720 0
v 721 111
v 722 31
v 723 12
v 724 29
v 725 93
v 726 31
v 727 19
v 728 3
v 729 82
v 730 5
v 731 105
v 732 79
v 733 63
v 734 5
v 735 21
v 736 71
v 737 84
v 738 30
v 739 48
v 740 54
v 741 10
v 742 6
v 743 78
v 744 15
v 745 102
v 746 83
v 747 65
v 748 105
v 749 53
v 750 39
v 751 22
v 752 72
v 753 32
v 754 38
v 755 22
v 756 23
v 757 59
v 758 1
v 759 75
v 760 125
v 761 46
v 762 15
v 763 60
v 764 66
v 765 75
v 766 136
v 767 99
v 768 50
v 769 43
v 770 116
v 771 125
v 772 55
v 773 23
v 774 69
v 775 88
v 776 30
v 777 38
v 778 91
v 779 45
v 780 51
v 781 23
v 782 46
v 783 24
v 784 45
v 785 33
v 786 37
v 787 58
v 788 5
v 789 83
v 790 108
v 791 18
v 792 85
v 793 42
v 794 2
v 795 125
v 796 76
v 797 82
v 798 8
v 799 82
v 800 58
v 801 110
v 802 21
v 803 7
v 804 69
v 805 91
v 806 39
v 807 44
v 808 79
v 809 74
v 810 115
v 811 56
v 812 4
v 813 28
v 814 90
v 815 12
v 816 10
v 817 53
v 818 64
v 819 61
v 820 69
v 821 18
v 822 86
v 823 111
v 824 53
v 825 20
v 826 113
v 827 77
v 828 106
v 829 8
v 830 97
v 831 74
v 832 15
v 833 67
v 834 11
v 835 66
v 836 82
v 837 89
v 838 72
v 839 43
v 840 14
v 841 115
v 842 27
v 843 123
v 844 100
v 845 127
v 846 70
v 847 48
v 848 118
v 849 85
v 850 68
v 851 26
v 852 92
v 853 77
v 854 90
v 855 82
v 856 102
v 857 47
v 858 10
v 859 29
v 860 17
v 861 23
v 862 62
v 863 62
v 864 62
v 865 6
v 866 50
v 867 94
v 868 44
v 869 112
v 870 57
v 871 9
v 872 106
v 873 0
v 874 57
v 875 55
v 876 10
v 877 62
v 878 78
v 879 88
v 880 28
v 881 122
v 882 136
v 883 48
v 884 39
v 885 67
v 886 58
v 887 36
v 888 20
v 889 52
v 890 11
v 891 134
v 892 118
v 893 33
v 894 27
v 895 55
v 896 18
v 897 10
v 898 124
v 899 7
v 900 49
v 901 27
v 902 31
v 903 70
v 904 32
v 905 28
v 906 49
v 907 21
v 908 11
v 909 111
v 910 46
v 911 45
v 912 25
v 913 118
v 914 42
v 915 5
v 916 26
v 917 85
v 918 103
v 919 99
v 920 61
v 921 58
v 922 133
v 923 5
v 924 44
v 925 22
v 926 80
v 927 4
v 928 3
v 929 59
v 930 96
v 931 96
v 932 97
v 933 98
v 934 63
v 935 37
v 936 74
v 937 103
v 938 55
v 939 16
v 940 68
v 941 93
v 942 50
v 943 136
v 944 9
v 945 84
v 946 102
v 947 79
v 948 111
v 949 57
v 950 109
v 951 28
v 952 16
v 953 58
v 954 47
v 955 69
v 956 108
v 957 27
v 958 8
v 959 128
v 960 65
v 961 50
v 962 132
v 963 90
v 964 4
v 965 69
v 966 44
v 967 20
v 968 41
v 969 6
v 970 116
v 971 109
v 972 107
v 973 44
v 974 26
v 975 68
v 976 12
v 977 43
v 978 66
v 979 42
v 980 110
v 981 59
v 982 97
v 983 61
v 984 119
v 985 87
v 986 35
v 987 41
v 988 0
v 989 108
v 990 42
v 991 72
v 992 83
v 993 82
v 994 68
v 995 71
v 996 7
v 997 128
v 998 29
v 999 58
v 1000 88
